p cnf 66 210
3 -1 0
3 -2 0
1 2 -3 0
5 3 0
5 -4 0
-3 4 -5 0
-1 5 -6 0
1 -5 -6 0
-1 -5 6 0
1 5 6 0
-6 -7 -8 0
6 7 -8 0
-6 7 8 0
6 -7 8 0
9 -4 -10 0
-9 4 -10 0
9 4 10 0
-9 -4 10 0
11 -7 -12 0
-11 7 -12 0
11 7 12 0
-11 -7 12 0
-10 12 -13 0
10 -12 -13 0
-10 -12 13 0
10 12 13 0
8 -13 -14 0
-8 13 -14 0
8 13 14 0
-8 -13 14 0
16 -15 0
16 5 0
15 -5 -16 0
17 -14 0
17 -16 0
14 16 -17 0
5 -9 -19 0
-5 9 -19 0
5 9 19 0
-5 -9 19 0
20 -18 0
20 -19 0
18 19 -20 0
-22 21 0
-22 18 0
-21 -18 22 0
-22 -15 -23 0
22 15 -23 0
-22 15 23 0
22 -15 23 0
-24 3 0
-24 23 0
-3 -23 24 0
-20 -24 -25 0
20 24 -25 0
-20 24 25 0
20 -24 25 0
-26 -7 0
-26 11 0
7 -11 26 0
27 -4 0
27 4 0
26 -27 -28 0
-26 27 -28 0
26 27 28 0
-26 -27 28 0
25 28 -29 0
-25 -28 -29 0
25 -28 29 0
-25 28 29 0
31 22 0
31 30 0
-22 -30 -31 0
29 -31 -32 0
-29 31 -32 0
29 31 32 0
-29 -31 32 0
33 4 0
33 -11 0
-4 11 -33 0
33 -34 -35 0
-33 34 -35 0
33 34 35 0
-33 -34 35 0
36 -6 0
36 5 0
6 -5 -36 0
-20 9 -37 0
20 -9 -37 0
-20 -9 37 0
20 9 37 0
-38 33 0
-38 2 0
-33 -2 38 0
39 -6 0
39 38 0
6 -38 -39 0
-40 -37 0
-40 39 0
37 -39 40 0
42 -33 0
42 -41 0
33 41 -42 0
43 -40 0
43 42 0
40 -42 -43 0
44 24 0
44 3 0
-24 -3 -44 0
43 44 -45 0
-43 -44 -45 0
43 -44 45 0
-43 44 45 0
-46 -23 0
-46 -9 0
23 9 46 0
-48 -4 0
-48 30 0
4 -30 48 0
-49 -47 0
-49 48 0
47 -48 49 0
-50 46 0
-50 49 0
-46 -49 50 0
51 -30 -52 0
-51 30 -52 0
51 30 52 0
-51 -30 52 0
53 5 0
53 -27 0
-5 27 -53 0
-54 53 0
-54 -23 0
-53 23 54 0
-55 -54 0
-55 22 0
54 -22 55 0
52 -55 -56 0
-52 55 -56 0
52 55 56 0
-52 -55 56 0
-57 4 0
-57 -6 0
-4 6 57 0
-56 57 -58 0
56 -57 -58 0
-56 -57 58 0
56 57 58 0
59 -50 0
59 -58 0
50 58 -59 0
-60 -45 0
-60 -59 0
45 59 60 0
-61 5 0
-61 -5 0
-62 -60 0
-62 61 0
60 -61 62 0
-36 62 -63 0
36 -62 -63 0
-36 -62 63 0
36 62 63 0
-35 63 -64 0
35 -63 -64 0
-35 -63 64 0
35 63 64 0
-65 32 0
-65 -64 0
-32 64 65 0
66 17 0
66 65 0
-17 -65 -66 0
45 -65 23 0
38 -53 43 9 -21 0
-10 22 0
-40 22 3 -62 0
42 -14 22 28 -3 0
42 7 25 -4 -30 0
22 57 55 0
-20 -53 39 -29 -16 -3 0
20 59 14 9 -31 -40 0
2 62 0
42 -47 0
-25 -50 6 -5 42 0
-19 -54 -23 0
21 -55 -3 -41 -22 0
40 -46 -12 3 43 -52 0
-19 28 53 -38 -1 0
46 -19 -34 -2 43 -50 0
-7 55 16 0
-57 25 -16 -32 -28 60 0
18 51 21 -38 -39 0
61 40 0
-64 -34 -2 21 0
-20 -48 6 0
46 -23 41 -38 0
66 64 -39 11 46 0
34 13 0
32 -54 -16 -35 47 -24 0
-30 -15 -50 66 0
32 -35 -17 0
-27 54 46 35 -62 0
29 43 -60 26 28 40 0
27 12 -43 28 0
-44 46 0
48 -46 59 -31 0
1 -17 31 -6 -22 0
66 0
